c pcminimize - minimizing a CNF with respect to propagation completeness by iterative removing of absorbed clauses.
c Petr Kucera, 2016-2021
c Version 2.7, revision 59, git hash 4910a71, date 2024-07-16 20:17:42 +0200
p cnf 467 846
-157 -251 0
-231 -251 0
251 -252 0
119 -252 0
231 -253 0
157 -253 0
254 -255 0
-157 -255 0
253 255 -256 0
256 -257 0
-119 -257 0
252 257 -258 0
258 -259 0
25 -259 0
-119 -260 0
231 -260 0
260 -262 0
261 -262 0
262 -263 0
-25 -263 0
259 263 -264 0
29 -265 0
-88 -265 0
-95 -265 0
-123 -265 0
266 -268 0
267 -268 0
264 -269 0
265 -269 0
268 -269 0
269 -270 0
190 -270 0
29 -271 0
160 -271 0
272 -273 0
-160 -273 0
271 273 -274 0
-88 -275 0
-119 -275 0
231 -275 0
274 -277 0
275 -277 0
276 -277 0
277 -278 0
157 -278 0
29 -279 0
-88 -279 0
279 -280 0
160 -280 0
-88 -281 0
29 -281 0
282 -283 0
-29 -283 0
281 283 -284 0
284 -285 0
-160 -285 0
280 285 -286 0
-231 -287 0
119 -287 0
254 -288 0
-119 -288 0
287 288 -289 0
289 -290 0
25 -290 0
260 -291 0
-25 -291 0
290 291 -292 0
286 -293 0
292 -293 0
293 -294 0
-157 -294 0
278 294 -295 0
14 -296 0
297 -298 0
-14 -298 0
296 298 -299 0
295 -300 0
299 -300 0
300 -302 0
301 -302 0
302 -303 0
-190 -303 0
270 303 -304 0
141 -305 0
145 -305 0
304 -307 0
305 -307 0
306 -307 0
307 -308 0
222 -308 0
143 -309 0
310 -311 0
-143 -311 0
309 311 -312 0
313 -314 0
145 -314 0
-141 -315 0
-145 -315 0
314 315 -316 0
264 -317 0
316 -317 0
265 -317 0
267 -317 0
317 -318 0
190 -318 0
-88 -319 0
261 -319 0
319 -320 0
29 -320 0
-157 -321 0
88 -321 0
261 -322 0
-88 -322 0
321 322 -323 0
323 -324 0
-29 -324 0
320 324 -325 0
325 -326 0
-119 -326 0
326 -327 0
276 -327 0
327 -328 0
231 -328 0
25 -329 0
-157 -329 0
284 -330 0
329 -330 0
330 -332 0
331 -332 0
332 -333 0
-231 -333 0
328 333 -334 0
299 -335 0
313 -335 0
335 -336 0
145 -336 0
-123 -337 0
-141 -337 0
337 -338 0
267 -338 0
338 -339 0
-145 -339 0
336 339 -340 0
334 -341 0
340 -341 0
341 -342 0
301 -342 0
342 -343 0
-190 -343 0
318 343 -344 0
312 -345 0
344 -345 0
345 -346 0
266 -346 0
346 -347 0
-222 -347 0
-156 -349 0
-163 -349 0
349 -350 0
138 -350 0
351 -352 0
163 -352 0
-156 -353 0
-163 -353 0
352 353 -354 0
354 -355 0
-138 -355 0
15 -357 0
-45 -357 0
-66 -357 0
-79 -357 0
196 -357 0
-198 -357 0
210 -357 0
213 -357 0
358 -366 0
359 -366 0
360 -366 0
361 -366 0
362 -366 0
363 -366 0
364 -366 0
365 -366 0
348 -367 0
356 -367 0
366 -367 0
242 -372 0
185 -384 0
-213 -385 0
-242 -385 0
385 -386 0
4 -386 0
387 -388 0
213 -388 0
-242 -389 0
-213 -389 0
388 389 -390 0
390 -391 0
-4 -391 0
386 391 -392 0
392 -393 0
99 -393 0
213 -394 0
242 -394 0
394 -395 0
-99 -395 0
397 -398 0
66 -398 0
210 -399 0
-66 -399 0
398 399 -400 0
400 -401 0
45 -401 0
66 -402 0
-210 -402 0
402 -403 0
-45 -403 0
401 403 -404 0
198 -405 0
79 -405 0
406 -407 0
-79 -407 0
405 407 -408 0
14 -409 0
-44 -409 0
408 -410 0
409 -410 0
410 -411 0
41 -411 0
79 -412 0
198 -412 0
412 -413 0
358 -413 0
267 -413 0
413 -414 0
-41 -414 0
411 414 -415 0
196 -416 0
404 -417 0
415 -417 0
416 -417 0
417 -418 0
27 -418 0
-196 -419 0
113 -419 0
420 -421 0
-113 -421 0
419 421 -422 0
397 -423 0
45 -423 0
-210 -424 0
-45 -424 0
423 424 -425 0
66 -426 0
79 -426 0
198 -426 0
358 -427 0
267 -427 0
422 -428 0
425 -428 0
426 -428 0
427 -428 0
428 -429 0
-27 -429 0
431 -432 0
139 -432 0
-15 -433 0
-139 -433 0
29 -435 0
-88 -435 0
95 -435 0
-119 -435 0
-123 -435 0
141 -435 0
-143 -435 0
145 -435 0
156 -435 0
-157 -435 0
-160 -435 0
163 -435 0
-190 -435 0
-231 -435 0
359 -443 0
436 -443 0
437 -443 0
438 -443 0
439 -443 0
440 -443 0
441 -443 0
442 -443 0
396 -444 0
430 -444 0
434 -444 0
443 -444 0
25 -447 0
-185 -462 0
463 -464 0
1 0
2 0
5 0
-6 0
-8 0
-10 0
-11 0
12 0
-13 0
-17 0
-19 0
-21 0
22 0
23 0
24 0
26 0
28 0
30 0
31 0
32 0
33 0
34 0
35 0
36 0
-39 0
40 0
-43 0
-46 0
-47 0
-50 0
-51 0
53 0
-57 0
-59 0
-60 0
61 0
62 0
63 0
64 0
67 0
68 0
70 0
71 0
72 0
-73 0
-74 0
76 0
-77 0
80 0
81 0
82 0
83 0
85 0
-86 0
-87 0
-90 0
-94 0
98 0
-101 0
-102 0
-104 0
106 0
-107 0
108 0
-109 0
-110 0
111 0
112 0
-115 0
-117 0
-120 0
125 0
126 0
-127 0
128 0
-130 0
131 0
-132 0
-133 0
-134 0
-135 0
137 0
140 0
-146 0
-147 0
-148 0
-151 0
-153 0
-154 0
155 0
-161 0
-162 0
164 0
166 0
167 0
-168 0
-170 0
-172 0
173 0
174 0
175 0
-177 0
180 0
-181 0
182 0
-184 0
-186 0
189 0
193 0
195 0
-199 0
-200 0
-201 0
-202 0
-203 0
206 0
208 0
209 0
211 0
212 0
218 0
-219 0
220 0
221 0
223 0
224 0
-225 0
-228 0
229 0
-230 0
-234 0
-240 0
243 0
-244 0
-247 0
-464 465 0
-36 464 0
-461 462 0
-248 460 0
-216 460 0
-207 460 0
150 460 0
-459 461 0
-458 459 0
-456 458 0
-455 456 0
-454 455 0
-453 454 0
116 453 0
-452 453 0
-450 451 0
-188 450 0
-449 450 0
-448 449 0
-447 448 0
214 447 0
-444 445 0
-443 444 0
-3 442 0
152 357 0
-399 400 0
-256 257 0
-4 386 0
-139 357 432 0
-374 376 0
-409 410 0
217 435 0
-121 357 0
213 385 389 0
-213 357 388 394 0
-210 357 397 399 0
114 357 0
-342 343 0
-290 292 0
-424 425 0
96 357 0
-92 357 0
-159 357 0
-56 357 0
-55 357 0
-48 357 0
37 357 0
66 357 399 0
-337 338 0
65 357 0
-158 435 0
-249 435 0
79 357 407 0
-150 372 0
-232 357 0
-136 357 0
-368 370 0
-89 357 0
-446 448 0
-346 347 0
-270 304 0
-356 367 0
-20 456 0
-432 434 0
-355 356 0
-353 354 0
84 357 0
-163 352 435 0
-351 352 0
141 313 315 337 0
-363 366 0
159 435 0
-138 350 0
-38 435 0
-352 354 0
-265 269 317 0
56 435 0
163 349 353 0
-332 333 0
-318 344 0
-380 381 0
-427 428 0
-348 367 0
-354 355 0
54 357 0
-347 348 0
-289 290 0
-423 425 0
-95 301 435 0
187 368 0
-377 378 0
-285 286 0
-9 357 0
-284 285 330 0
-460 461 0
95 265 301 0
-16 452 0
-88 282 321 0
-345 346 0
-141 305 313 435 0
-280 286 0
-187 435 0
-420 421 0
145 315 339 0
-271 274 0
-376 377 0
-41 411 0
-276 277 327 0
-119 252 287 331 0
-278 295 0
-327 328 0
-263 264 0
-324 325 0
231 251 254 287 333 435 0
-295 300 0
29 272 283 324 0
-269 270 0
119 257 260 275 288 326 331 435 0
204 435 0
-267 268 317 338 413 427 0
-388 390 0
-142 357 0
-395 396 0
-29 265 271 272 279 281 320 435 0
20 381 0
-326 327 0
-257 258 0
-319 320 0
-300 302 0
-314 316 0
-335 336 0
-266 268 346 0
-310 311 0
-316 317 0
-178 365 0
-339 340 0
-349 350 0
75 435 0
-258 259 0
169 357 0
-315 316 0
-466 467 0
-197 435 0
-336 340 0
158 357 0
-66 398 402 426 0
-298 299 0
25 263 276 291 0
-381 382 0
-311 312 0
-391 392 0
210 397 402 424 0
-252 258 0
-338 339 0
-156 351 435 0
-286 293 0
-288 289 0
-419 422 0
-293 294 0
160 266 273 285 435 0
-68 382 457 0
-422 428 0
-277 278 0
-340 341 0
-251 252 0
-294 295 0
-205 310 0
-303 304 0
-331 332 0
-268 269 0
-309 312 0
103 357 0
-296 299 0
-49 375 0
-312 345 0
-334 341 0
45 357 403 424 0
-333 334 0
-157 253 261 278 0
-417 418 0
-273 274 0
-25 259 276 290 329 447 0
-283 284 0
-75 357 0
-306 307 0
97 357 0
-190 270 318 0
-250 435 0
-261 262 319 322 0
-279 280 0
-231 253 254 260 275 328 0
-254 255 288 0
-78 357 0
-393 396 0
-144 357 0
-262 263 0
-323 324 0
122 375 0
-183 359 0
-253 256 0
139 433 0
-341 342 0
-322 323 0
-260 262 291 0
-179 435 0
-403 404 0
-396 444 0
-118 357 0
-320 325 0
-259 264 0
-369 370 0
138 355 435 0
-442 443 0
100 357 0
-215 435 0
-264 269 317 0
179 357 0
-325 326 0
250 369 0
-343 344 0
-37 435 0
-160 266 271 280 0
-255 256 0
-99 393 0
14 267 298 0
-291 292 0
-301 302 342 0
44 358 409 0
191 435 0
-425 428 0
-375 376 0
-292 293 0
-329 330 0
-27 357 418 0
-330 332 0
215 357 0
-297 298 0
-282 283 0
-145 305 314 336 435 0
-113 419 0
-217 357 0
-344 345 0
-308 348 0
-357 367 0
-451 452 0
-305 307 0
-307 308 0
-317 318 0
-165 435 0
-299 300 335 0
-65 435 0
-236 455 0
-302 303 0
-304 307 0
222 347 435 0
-281 284 0
-222 308 0
-411 415 0
129 440 0
-272 273 0
183 359 0
-14 267 296 409 0
-407 408 0
69 357 0
93 357 0
-69 435 0
176 357 0
-84 435 0
-401 404 0
89 435 0
-408 410 0
188 357 0
-96 435 0
-191 357 0
99 372 395 0
197 357 0
-105 361 0
-438 443 0
198 357 406 0
-204 357 0
118 435 0
-287 289 0
-274 277 0
-378 380 0
-457 458 0
-226 357 0
190 303 343 435 0
-361 366 0
-387 388 0
235 357 0
236 357 0
237 357 0
-238 357 0
-313 314 335 0
241 357 0
245 357 0
246 357 0
249 357 0
-143 306 309 0
-370 371 0
-385 386 0
-44 358 0
-358 366 413 427 0
242 385 387 389 0
239 360 0
-360 366 0
-445 446 0
78 435 0
171 362 0
-79 405 412 426 0
-362 366 0
91 363 0
-194 379 0
-246 435 0
-321 323 0
7 364 0
-364 366 0
-379 380 0
-366 367 0
-367 368 0
-398 400 0
38 357 0
-371 373 0
165 372 0
-431 432 0
207 372 0
-214 372 0
121 435 0
233 372 0
-242 372 387 394 0
-406 407 0
248 372 0
-400 401 0
-372 373 0
-373 374 0
-413 414 0
-149 375 0
216 375 0
-124 435 0
16 377 0
-382 383 0
-390 391 0
-383 384 0
92 435 0
-389 390 0
-394 395 0
-397 398 423 0
-45 401 423 0
-192 357 0
-428 429 0
-116 379 0
-402 403 0
-404 417 0
-405 408 0
-410 411 0
-412 413 0
-123 297 0
-414 415 0
124 357 0
-415 417 0
-416 417 0
196 419 420 0
-421 422 0
-426 428 0
-418 430 0
-365 366 0
27 429 0
-430 444 0
-235 435 0
-434 444 0
9 435 0
-392 393 0
48 435 0
49 435 0
-54 435 0
55 435 0
-93 435 0
-97 435 0
-100 435 0
192 435 0
-103 435 0
-114 435 0
-122 435 0
136 435 0
142 435 0
-275 277 0
42 438 0
144 435 0
149 435 0
-152 435 0
-386 392 0
-169 435 0
-176 435 0
-328 334 0
194 435 0
226 435 0
-465 466 0
232 435 0
-233 435 0
-441 443 0
-237 435 0
238 435 0
-241 435 0
-245 435 0
-435 444 0
52 436 0
-436 443 0
18 437 0
157 251 255 261 294 321 329 435 0
-437 443 0
58 439 0
-439 443 0
-440 443 0
227 441 0
